SPARKNaCl/why3-cvc5/sparknacl-aes.adb_572_12_range_check2_1.smt2
;; produced by cvc5.drv ;;
(set-logic ALL)
(set-info :smt-lib-version 2.6)
;;; generated by SMT-LIB2 driver
;;; SMT-LIB2 driver: bit-vectors, common part
;;; SMT-LIB2: integer arithmetic
;; "pow2"
(declare-fun pow2 (Int) Int)

(declare-const two_power_size_minus_one Int)

;; "two_power_size_minus_one_val"
(assert (= two_power_size_minus_one (pow2 (- 32 1))))

;; "min"
(define-fun min ((x Int) (y Int)) Int
  (ite (<= x y) x y))

;; "max"
(define-fun max ((x Int) (y Int)) Int
  (ite (<= x y) y x))

;; "Min_r"
(assert (forall ((x Int) (y Int)) (=> (<= y x) (= (min x y) y))))

;; "Max_l"
(assert (forall ((x Int) (y Int)) (=> (<= y x) (= (max x y) x))))

;; "Min_comm"
(assert (forall ((x Int) (y Int)) (= (min x y) (min y x))))

;; "Max_comm"
(assert (forall ((x Int) (y Int)) (= (max x y) (max y x))))

;; "Min_assoc"
(assert
  (forall ((x Int) (y Int) (z Int)) (= (min (min x y) z) (min x (min y z)))))

;; "Max_assoc"
(assert
  (forall ((x Int) (y Int) (z Int)) (= (max (max x y) z) (max x (max y z)))))

(declare-sort u32 0)

;; "to_rep"
(declare-fun to_rep (u32) (_ BitVec 32))

;; "of_rep"
(declare-fun of_rep ((_ BitVec 32)) u32)

;; "inversion_axiom"
(assert
  (forall ((x u32)) (! (= (of_rep (to_rep x)) x) :pattern ((to_rep x)) )))

;; "range_axiom"
(assert true)

;; "coerce_axiom"
(assert
  (forall ((x (_ BitVec 32)))
    (! (= (to_rep (of_rep x)) x) :pattern ((to_rep (of_rep x))) )))

(declare-sort map1 0)

;; "has_bounds"
(declare-fun has_bounds (map1
  Int
  Int) Bool)

;; "get"
(declare-fun get (map1
  Int) u32)

(declare-datatypes ((us_split_fields 0))
  (((us_split_fieldsqtmk (rec__ada___sparknacl__aes__aes256_key__f map1)))))

(declare-datatypes ((us_rep 0))
  (((us_repqtmk (us_split_fields1 us_split_fields)))))

;; "dynamic_invariant"
(define-fun dynamic_invariant ((temp___expr_376 us_rep) (temp___is_init_372 Bool) (temp___skip_constant_373 Bool) (temp___do_toplevel_374 Bool) (temp___do_typ_inv_375 Bool)) Bool
  (has_bounds
    (rec__ada___sparknacl__aes__aes256_key__f
      (us_split_fields1 temp___expr_376))
    0
    7))

(declare-const key us_rep)

(declare-const two_power_size_minus_one1 Int)

;; "two_power_size_minus_one_val"
(assert (= two_power_size_minus_one1 (pow2 (- 8 1))))

(declare-sort byte 0)

(declare-datatypes ((byte__init_wrapper 0))
  (((byte__init_wrapperqtmk (rec__value byte)(us_attr__init Bool)))))

(declare-sort map2 0)

;; "has_bounds"
(declare-fun has_bounds1 (map2
  Int
  Int) Bool)

;; "get"
(declare-fun get1 (map2
  Int) byte__init_wrapper)

;; "slide"
(declare-fun slide (map2
  Int
  Int) map2)

;; "slide_eq"
(assert
  (forall ((a map2) (first Int))
    (! (= (slide a first first) a) :pattern ((slide a first first)) )))

;; "slide_def"
(assert
  (forall ((a map2) (old_first Int) (new_first Int))
    (! (and
         (forall ((i Int))
           (! (= (get1 (slide a old_first new_first) i) (get1
                                                          a
                                                          (- i (- new_first old_first)))) :pattern (
           (get1
             (slide a old_first new_first)
             i)) ))
         (forall ((new_last Int))
           (! (=>
                (has_bounds1
                  a
                  old_first
                  (- new_last (- new_first old_first)))
                (has_bounds1
                  (slide a old_first new_first)
                  new_first
                  new_last)) :pattern ((has_bounds1
                                         (slide a old_first new_first)
                                         new_first
                                         new_last)) ))) :pattern ((slide
                                                                    a
                                                                    old_first
                                                                    new_first)) )))

;; "slice"
(declare-fun slice (map2
  Int
  Int) map2)

;; "slice_eq"
(assert
  (forall ((a map2) (f Int) (l Int))
    (! (=> (has_bounds1 a f l) (= (slice a f l) a)) :pattern ((slice a f l)
    (has_bounds1 a f l)) )))

;; "slice_slice"
(assert
  (forall ((a map2) (f1 Int) (l1 Int) (f2 Int) (l2 Int))
    (! (=>
         (and (<= f1 f2) (<= l2 l1))
         (= (slice (slice a f1 l1) f2 l2) (slice a f2 l2))) :pattern (
    (slice
      (slice a f1 l1)
      f2
      l2)) )))

;; "slice_def"
(assert
  (forall ((a map2) (f Int) (l Int))
    (! (forall ((i Int))
         (! (=>
              (and (<= f i) (<= i l))
              (= (get1 (slice a f l) i) (get1 a i))) :pattern ((get1
                                                                 (slice
                                                                   a
                                                                   f
                                                                   l)
                                                                 i)) :pattern (
         (get1
           a
           i)) )) :pattern ((slice a f l)) )))

;; "slice_has_bounds"
(assert
  (forall ((a map2) (f Int) (l Int))
    (! (has_bounds1 (slice a f l) f l) :pattern ((has_bounds1
                                                   (slice a f l)
                                                   f
                                                   l)) )))

;; "to_rep"
(declare-fun to_rep1 (byte) (_ BitVec 8))

;; "of_rep"
(declare-fun of_rep1 ((_ BitVec 8)) byte)

;; "inversion_axiom"
(assert
  (forall ((x byte)) (! (= (of_rep1 (to_rep1 x)) x) :pattern ((to_rep1 x)) )))

;; "range_axiom"
(assert true)

;; "coerce_axiom"
(assert
  (forall ((x (_ BitVec 8)))
    (! (= (to_rep1 (of_rep1 x)) x) :pattern ((to_rep1 (of_rep1 x))) )))

;; "__is_initialized"
(define-fun us_is_initialized ((temp___expr_809 map2)) Bool
  (forall ((temp___810 Int))
    (=>
      (and (<= 0 temp___810) (<= temp___810 3))
      (= (us_attr__init (get1 temp___expr_809 temp___810)) true))))

(declare-sort tinteger_32B 0)

;; "tinteger_32B'int"
(declare-fun tinteger_32Bqtint (tinteger_32B) Int)

;; "tinteger_32B'axiom"
(assert
  (forall ((i tinteger_32B))
    (and
      (<= (- 2147483648) (tinteger_32Bqtint i))
      (<= (tinteger_32Bqtint i) 2147483647))))

;; "in_range"
(define-fun in_range ((x Int)) Bool
  (and (<= (- 2147483648) x) (<= x 2147483647)))

;; "to_rep"
(define-fun to_rep2 ((x tinteger_32B)) Int
  (tinteger_32Bqtint x))

;; "of_rep"
(declare-fun of_rep2 (Int) tinteger_32B)

;; "inversion_axiom"
(assert
  (forall ((x tinteger_32B))
    (! (= (of_rep2 (to_rep2 x)) x) :pattern ((to_rep2 x)) )))

;; "range_axiom"
(assert
  (forall ((x tinteger_32B))
    (! (in_range (to_rep2 x)) :pattern ((to_rep2 x)) )))

;; "coerce_axiom"
(assert
  (forall ((x Int))
    (! (=> (in_range x) (= (to_rep2 (of_rep2 x)) x)) :pattern ((to_rep2
                                                                 (of_rep2 x))) )))

(declare-datatypes ((t 0))
  (((tqtmk (rec__first tinteger_32B)(rec__last tinteger_32B)))))

;; "mk"
(declare-fun mk (Int
  Int) t)

;; "mk_def"
(assert
  (forall ((f Int) (l Int))
    (! (=>
         (in_range f)
         (=>
           (in_range l)
           (and
             (= (to_rep2 (rec__first (mk f l))) f)
             (= (to_rep2 (rec__last (mk f l))) l)))) :pattern ((mk f l)) )))

(declare-datatypes ((us_t 0))
  (((us_tqtmk (elts map2)(rt t)))))

;; "of_array"
(define-fun of_array ((a map2) (f Int) (l Int)) us_t
  (us_tqtmk a (mk f l)))

;; Goal "def'vc"
;; File "sparknacl-aes.ads", line 33, characters 0-0
(assert
  (not
  (forall ((result__ map2))
    (=>
      (dynamic_invariant key true false true true)
      (=>
        (has_bounds1 result__ 0 31)
        (forall ((i Int))
          (=>
            (= i 0)
            (=>
              (= (and (ite (<= 0 i) true false) (ite (<= i 7) true false)) true)
              (let ((temp___1030 (+ (* 4 i) 3)))
                (let ((temp___1029 (* 4 i)))
                  (=>
                    (=>
                      (<= temp___1029 temp___1030)
                      (and
                        (and (<= 0 temp___1029) (<= temp___1029 31))
                        (and (<= 0 temp___1030) (<= temp___1030 31))))
                    (=>
                      (ite (<= temp___1029 temp___1030)
                        (and
                          (<= 0 3)
                          (= (- temp___1030 temp___1029) (- 3 0)))
                        (< 3 0))
                      (forall ((o (_ BitVec 32)))
                        (=>
                          (= (to_rep
                               (get
                                 (rec__ada___sparknacl__aes__aes256_key__f
                                   (us_split_fields1 key))
                                 i)) o)
                          (forall ((param__output map2))
                            (=>
                              (and
                                (us_is_initialized param__output)
                                (has_bounds1 param__output 0 3))
                              (forall ((usf map2))
                                (=>
                                  (forall ((temp___1039 Int))
                                    (ite (and
                                           (<= (* 4 i) temp___1039)
                                           (<= temp___1039 (+ (* 4 i) 3)))
                                      (= (get1 usf temp___1039) (get1
                                                                  (slide
                                                                    param__output
                                                                    0
                                                                    (* 4 i))
                                                                  temp___1039))
                                      (= (get1 usf temp___1039) (get1
                                                                  result__
                                                                  temp___1039))))
                                  (forall ((result__1 map2))
                                    (=>
                                      (= result__1 usf)
                                      (=>
                                        (<= 0 (+ (+ 0 (* 4 i)) 3))
                                        (<= 0 31))))))))))))))))))))))

(check-sat)
